27008
1 0 0 0 0 0 0 0 1 1 0 0 1 1 0 0 0 0 1 1 0 1 0 0 0 0 0 1 1 1 
18 19 21 27 21 12 21 27 18 28 29 19 8 13 19 18 13 8 27 27 27 21 0 27 8 18 27 28 29 21 19 19 19 21 27 12 8 8 27 21 18 9 19 29 8 19 13 21 19 9 0 21 21 21 8 19 18 9 18 18 29 0 18 8 8 12 0 19 28 12 18 12 19 9 0 13 8 0 8 21 13 0 9 12 29 13 19 0 27 18 28 19 18 12 0 13 27 12 0 28 28 21 12 18 29 0 29 27 27 13 19 29 27 12 12 8 28 18 0 8 9 12 28 19 9 21 21 12 19 0 28 0 12 8 13 9 13 13 28 8 12 27 19 12 12 0 27 21 27 12 27 0 13 0 8 28 21 21 8 13 13 27 8 0 0 27 13 29 13 21 13 8 19 9 9 21 0 8 29 8 21 21 21 19 12 8 28 13 0 21 21 21 19 29 18 12 18 21 8 19 
